models/hepatocore/simulations/fasimu/cplex.log

Log started (V10.1.1) Thu Oct  8 19:34:43 2009


Log started (V10.1.1) Thu Oct  8 19:34:44 2009


Log started (V10.1.1) Thu Oct  8 19:34:44 2009


Log started (V10.1.1) Thu Oct  8 19:34:44 2009


Log started (V10.1.1) Thu Oct  8 19:34:45 2009


Log started (V10.1.1) Thu Oct  8 19:34:46 2009


Log started (V10.1.1) Thu Oct  8 19:34:46 2009


Log started (V10.1.1) Thu Oct  8 19:34:47 2009


Log started (V10.1.1) Thu Oct  8 19:34:47 2009


Log started (V10.1.1) Thu Oct  8 19:34:48 2009


Log started (V10.1.1) Thu Oct  8 19:34:48 2009


Log started (V10.1.1) Thu Oct  8 19:34:48 2009


Log started (V10.1.1) Thu Oct  8 19:34:49 2009


Log started (V10.1.1) Thu Oct  8 19:34:49 2009


Log started (V10.1.1) Thu Oct  8 19:34:50 2009


Log started (V10.1.1) Thu Oct  8 19:34:51 2009


Log started (V10.1.1) Thu Oct  8 19:34:52 2009


Log started (V10.1.1) Thu Oct  8 19:34:52 2009


Log started (V10.1.1) Thu Oct  8 19:34:53 2009


Log started (V10.1.1) Thu Oct  8 19:34:54 2009


Log started (V10.1.1) Thu Oct  8 19:34:54 2009


Log started (V10.1.1) Thu Oct  8 19:34:55 2009


Log started (V10.1.1) Thu Oct  8 19:34:55 2009


Log started (V10.1.1) Thu Oct  8 19:34:56 2009


Log started (V10.1.1) Thu Oct  8 19:34:56 2009


Log started (V10.1.1) Thu Oct  8 19:34:57 2009


Log started (V10.1.1) Thu Oct  8 19:34:58 2009


Log started (V10.1.1) Thu Oct  8 19:34:58 2009


Log started (V10.1.1) Thu Oct  8 19:34:58 2009


Log started (V10.1.1) Thu Oct  8 19:34:59 2009


Log started (V10.1.1) Thu Oct  8 19:35:00 2009


Log started (V10.1.1) Thu Oct  8 19:35:01 2009


Log started (V10.1.1) Thu Oct  8 19:35:02 2009


Log started (V10.1.1) Thu Oct  8 19:35:02 2009


Log started (V10.1.1) Thu Oct  8 19:35:02 2009


Log started (V10.1.1) Thu Oct  8 19:35:03 2009


Log started (V10.1.1) Thu Oct  8 19:35:04 2009


Log started (V10.1.1) Thu Oct  8 19:35:06 2009


Log started (V10.1.1) Thu Oct  8 19:35:06 2009


Log started (V10.1.1) Thu Oct  8 19:35:07 2009


Log started (V10.1.1) Thu Oct  8 19:35:07 2009


Log started (V10.1.1) Thu Oct  8 19:35:08 2009


Log started (V10.1.1) Thu Oct  8 19:35:09 2009


Log started (V10.1.1) Thu Oct  8 19:35:09 2009


Log started (V10.1.1) Thu Oct  8 19:35:10 2009


Log started (V10.1.1) Thu Oct  8 19:35:11 2009


Log started (V10.1.1) Thu Oct  8 19:35:11 2009


Log started (V10.1.1) Thu Oct  8 19:35:12 2009


Log started (V10.1.1) Thu Oct  8 19:35:14 2009


Log started (V10.1.1) Thu Oct  8 19:35:14 2009


Log started (V10.1.1) Thu Oct  8 19:35:15 2009


Log started (V10.1.1) Thu Oct  8 19:35:16 2009


Log started (V10.1.1) Thu Oct  8 19:35:17 2009


Log started (V10.1.1) Thu Oct  8 19:35:17 2009


Log started (V10.1.1) Thu Oct  8 19:35:19 2009


Log started (V10.1.1) Thu Oct  8 19:35:20 2009


Log started (V10.1.1) Thu Oct  8 19:35:21 2009


Log started (V10.1.1) Thu Oct  8 19:35:22 2009


Log started (V10.1.1) Thu Oct  8 19:35:23 2009


Log started (V10.1.1) Thu Oct  8 19:35:24 2009


Log started (V10.1.1) Thu Oct  8 19:35:25 2009


Log started (V10.1.1) Thu Oct  8 19:35:26 2009


Log started (V10.1.1) Thu Oct  8 19:35:27 2009


Log started (V10.1.1) Thu Oct  8 19:35:28 2009


Log started (V10.1.1) Thu Oct  8 19:35:29 2009


Log started (V10.1.1) Thu Oct  8 19:35:30 2009


Log started (V10.1.1) Thu Oct  8 19:35:31 2009


Log started (V10.1.1) Thu Oct  8 19:35:33 2009


Log started (V10.1.1) Thu Oct  8 19:35:34 2009


Log started (V10.1.1) Thu Oct  8 19:35:35 2009


Log started (V10.1.1) Thu Oct  8 19:35:36 2009


Log started (V10.1.1) Thu Oct  8 19:35:37 2009


Log started (V10.1.1) Thu Oct  8 19:35:39 2009


Log started (V10.1.1) Thu Oct  8 19:35:40 2009


Log started (V10.1.1) Thu Oct  8 19:35:41 2009


Log started (V10.1.1) Thu Oct  8 19:35:42 2009


Log started (V10.1.1) Thu Oct  8 19:35:43 2009


Log started (V10.1.1) Thu Oct  8 19:35:43 2009


Log started (V10.1.1) Thu Oct  8 19:35:45 2009


Log started (V10.1.1) Thu Oct  8 19:35:46 2009


Log started (V10.1.1) Thu Oct  8 19:35:47 2009


Log started (V10.1.1) Thu Oct  8 19:35:48 2009


Log started (V10.1.1) Thu Oct  8 19:35:49 2009


Log started (V10.1.1) Thu Oct  8 19:35:49 2009


Log started (V10.1.1) Thu Oct  8 19:35:51 2009


Log started (V10.1.1) Thu Oct  8 19:35:51 2009


Log started (V10.1.1) Thu Oct  8 19:35:52 2009


Log started (V10.1.1) Thu Oct  8 19:35:53 2009


Log started (V10.1.1) Thu Oct  8 19:35:54 2009


Log started (V10.1.1) Thu Oct  8 19:35:56 2009


Log started (V10.1.1) Thu Oct  8 19:35:57 2009


Log started (V10.1.1) Thu Oct  8 19:35:59 2009


Log started (V10.1.1) Thu Oct  8 19:35:59 2009


Log started (V10.1.1) Thu Oct  8 19:36:00 2009


Log started (V10.1.1) Thu Oct  8 19:36:01 2009


Log started (V10.1.1) Thu Oct  8 19:36:03 2009


Log started (V10.1.1) Thu Oct  8 19:36:04 2009


Log started (V10.1.1) Thu Oct  8 19:36:05 2009


Log started (V10.1.1) Thu Oct  8 19:36:06 2009


Log started (V10.1.1) Thu Oct  8 19:36:07 2009


Log started (V10.1.1) Thu Oct  8 19:36:08 2009


Log started (V10.1.1) Thu Oct  8 19:36:10 2009


Log started (V10.1.1) Thu Oct  8 19:36:12 2009


Log started (V10.1.1) Thu Oct  8 19:36:13 2009

