models/hepatocore/simulations/fasimu/cplex.out

Welcome to CPLEX Interactive Optimizer 10.1.1
  with Simplex, Mixed Integer & Barrier Optimizers
Copyright (c) ILOG 1997-2006
CPLEX is a registered trademark of ILOG

Type 'help' for a list of available commands.
Type 'help' followed by a command name for more
information on commands.

CPLEX> Logfile 'cplex.log' closed.
CPLEX> Enter new problem ['end' on a separate line terminates]:
CPLEX> New value for emphasis for MIP optimization: 4
CPLEX> New value for branch and cut node limit: 50000
CPLEX> New value for type of clock used: 2
CPLEX> New value for time limit in seconds: 300
CPLEX> Tried aggregator 1 time.
LP Presolve eliminated 684 rows and 1621 columns.
Aggregator did 278 substitutions.
Reduced LP has 178 rows, 420 columns, and 1083 nonzeros.
Presolve time =    0.00 sec.
Initializing dual steep norms . . .

Iteration log . . .
Iteration:     1   Dual objective     =           146.000000

Dual simplex - Optimal:  Objective =  6.1000000000e+02
Solution time =    0.01 sec.  Iterations = 25 (0)

CPLEX> Variable Name           Solution Value
vp00148                      16.000000
vp00162                      13.000000
vp00168                      19.000000
vp00197                      35.000000
vp00246                      27.000000
vp00247                      62.000000
vp00249                      20.000000
vp00251                      17.000000
vp00253                      36.000000
vp00256                       7.000000
vp00259                      28.000000
vp00260                      29.000000
vp00262                      35.000000
vp00264                      24.000000
vp00266                      64.000000
vp00268                      43.000000
vp00269                       9.000000
vp00278                      60.000000
vp00304                       2.000000
vp00394                      63.000000
vp00407                       1.000000
v00407                        1.000000
v00418                      608.000000
v00431                    -3040.000000
v00246                       27.000000
v00440                      -27.000000
v00247                       62.000000
v00482                      -62.000000
v00249                       20.000000
v00253                       36.000000
v00527                      -20.000000
v00528                      -36.000000
v00554                     3040.000000
v00571                     3040.000000
v00262                       35.000000
v00394                       63.000000
v00601                      -63.000000
v00251                       17.000000
v00603                      -17.000000
v00148                       16.000000
v00605                      -16.000000
v00256                        7.000000
v00607                       -7.000000
v00162                       13.000000
v00609                      -13.000000
v00259                       28.000000
v00611                      -28.000000
v00260                       29.000000
v00613                      -29.000000
v00615                      -35.000000
v00264                       24.000000
v00616                      -24.000000
v00266                       64.000000
v00618                      -64.000000
v00268                       43.000000
v00620                      -43.000000
v00269                        9.000000
v00622                       -9.000000
v00197                       35.000000
v00624                      -35.000000
v00168                       19.000000
v00626                      -19.000000
v00304                        2.000000
v00628                       -2.000000
v00278                       60.000000
v00630                      -60.000000
v00773                        1.000000
vp00418                     608.000000
vn00431                    3040.000000
vn00440                      27.000000
vn00482                      62.000000
vn00527                      20.000000
vn00528                      36.000000
vp00554                    3040.000000
vp00571                    3040.000000
vn00601                      63.000000
vn00603                      17.000000
vn00605                      16.000000
vn00607                       7.000000
vn00609                      13.000000
vn00611                      28.000000
vn00613                      29.000000
vn00615                      35.000000
vn00616                      24.000000
vn00618                      64.000000
vn00620                      43.000000
vn00622                       9.000000
vn00624                      35.000000
vn00626                      19.000000
vn00628                       2.000000
vn00630                      60.000000
vp00773                       1.000000
All other variables in the range 1-2319 are 0.
CPLEX> 